NAME : a280
COMMENT : Tour length 3221
TYPE : TOUR
DIMENSION : 280
TOUR_SECTION
1
280
2
3
279
278
4
277
276
275
274
273
272
271
16
17
18
19
20
131
130
21
128
127
126
125
124
123
122
121
120
119
157
158
159
160
175
161
162
163
164
165
166
167
168
169
102
103
104
108
110
111
114
115
117
118
61
60
43
42
41
40
39
38
37
36
35
34
33
31
32
29
28
27
26
22
25
23
24
14
13
15
12
11
10
8
7
9
6
5
260
259
258
257
256
255
254
253
252
209
208
206
207
210
211
212
213
214
215
216
217
218
219
220
221
222
223
224
225
226
227
228
229
230
251
250
247
245
240
241
244
243
242
239
246
231
238
237
232
233
234
235
236
249
248
261
262
263
264
265
266
140
139
138
137
136
135
134
270
269
268
267
141
142
143
144
200
201
196
195
194
197
198
199
145
146
147
148
149
150
178
177
151
152
156
153
155
154
129
132
133
30
48
47
46
45
56
55
54
53
52
51
50
49
44
57
58
59
63
62
116
86
85
84
87
113
112
88
83
82
81
80
79
76
75
74
73
72
71
70
67
66
65
64
68
69
77
78
95
94
97
98
93
92
91
90
109
89
105
106
173
174
107
170
171
172
101
100
99
96
188
189
190
191
192
193
186
187
185
184
183
182
181
180
179
176
202
203
204
205
1
-1
EOF